c Random CNF formula
p cnf 15 30
-8 -13 -3 0
11 12 -13 0
-13 3 -2 0
6 -14 -2 0
8 -4 -12 0
12 -2 15 0
-6 12 10 0
9 6 15 0
5 1 -9 0
15 -7 10 0
12 -7 -1 0
10 -4 6 0
-15 -7 13 0
-9 10 3 0
3 -15 4 0
-4 -5 -8 0
6 1 7 0
-13 3 -15 0
-4 13 -12 0
15 9 13 0
-14 -13 -6 0
-5 4 12 0
1 -10 4 0
1 11 4 0
12 -5 -1 0
-10 -8 4 0
7 13 14 0
-4 -6 -3 0
10 7 -6 0
11 -12 6 0
